s td 52 50 145
b 1 22 62 136
b 2 26 128 129
b 3 14 36 44
b 4 15 37 103
b 5 14 71 88 99 136
b 6 11 17 74 103 137
b 7 11 78 99
b 8 17 52 80 82 88
b 9 11 14 15 17 18 44 52 62 80 88 99 103 115 119 136 137 143
b 10 18 80 91 119
b 11 18 94 115 137
b 12 11 14 15 18 44 52 62 80 88 99 103 115 119 136 137 143
b 13 49 100 145
b 14 11 14 44 52 62 80 88 103 108 115 119 136 137
b 15 15 44 52 62 111
b 16 115 128 143
b 17 49 119 143
b 18 11 14 15 44 52 62 80 88 99 103 115 119 136 137 143
b 19 1 2 3 5 7 9 10 11 13 14 16 23 25 31 32 34 42 45 50 56 58 61 64 68 69 77 79 80 81 84 87 88 105 107 113 115 118 119 120 121 126 127 132 136 137 138 139 141
b 20 1 2 5 7 9 10 11 13 14 16 23 25 31 32 34 42 45 50 56 58 61 64 68 69 77 79 80 81 84 87 88 95 105 107 115 118 119 120 126 127 132 136 137 138 139 141
b 21 1 2 5 7 9 10 11 13 14 15 16 25 31 32 34 42 44 50 52 58 61 62 64 68 69 77 79 80 81 84 87 88 95 103 105 107 115 118 119 120 126 127 132 136 137 138 139 141
b 22 1 2 5 7 9 10 13 15 16 25 31 32 34 42 44 46 50 52 55 58 61 62 64 68 69 77 79 81 84 85 87 95 103 105 106 107 118 120 126 127 130 132 138 139 141
b 23 2 4 7 9 10 13 15 16 25 28 32 34 42 44 46 50 52 55 58 61 62 64 69 77 79 81 84 85 87 95 101 103 105 106 107 120 123 126 127 130 132 138 139 141
b 24 2 4 7 9 10 15 16 21 25 28 32 34 39 42 44 46 50 52 55 58 61 62 64 69 77 79 81 84 85 95 101 103 105 106 107 120 123 130 131 138 139 140 141
b 25 4 7 9 10 15 16 21 28 34 39 42 44 46 50 52 55 58 62 69 77 79 81 84 85 95 101 103 105 106 107 120 123 130 131 138 139 140 141 144
b 26 4 7 10 15 16 21 28 34 39 42 44 46 50 52 55 58 62 66 69 70 77 79 81 84 85 95 101 103 105 106 107 120 123 130 131 138 139 140 141 144
b 27 4 7 10 15 16 19 21 28 34 39 42 44 46 50 52 55 58 62 66 69 70 77 79 81 84 85 101 103 105 106 107 120 123 130 131 138 139 140 141 144
b 28 6 7 10 15 16 19 34 42 44 46 50 52 55 58 62 66 70 79 84 85 105 107 120 130 138 141 144
b 29 4 7 10 16 19 21 28 33 34 38 39 42 43 44 46 50 52 62 66 69 70 79 81 85 86 101 103 106 109 112 120 122 123 130 131 134 135 139 140 141 144
b 30 8 10 28 42 44 66 70 79 86 101 109 130 131 135 140
b 31 4 7 16 19 21 30 43 46 50 62 106 122 134
b 32 33 34 38 39 52 69 81 85 96 103 112 120 123 139 141 144
b 33 4 7 10 16 19 21 28 33 34 39 42 43 44 46 50 52 62 66 69 70 79 81 85 86 98 101 103 106 112 120 122 123 130 131 135 139 140 141 144
b 34 2 7 10 15 16 21 25 32 34 39 42 44 46 50 52 55 61 62 64 79 85 110 120 130 131 140 141
b 35 4 7 10 13 15 16 28 34 42 44 46 50 52 55 60 62 79 85 87 101 120 123 126 127 130 132 141
b 36 1 2 5 11 13 14 15 25 32 44 52 58 61 62 68 80 87 88 99 103 105 107 115 118 119 126 132 136 137 138
b 37 1 2 3 5 7 9 10 11 12 13 14 16 23 25 27 31 32 34 42 45 50 51 56 58 61 64 68 69 79 80 81 84 87 88 105 107 113 115 118 119 120 121 126 127 132 136 137 138 139 141
b 38 1 2 3 7 9 10 11 12 13 14 16 23 27 31 32 34 42 45 48 50 51 56 58 61 64 68 69 79 80 81 84 87 88 90 105 113 115 116 118 119 120 121 127 132 136 137 138 139 141
b 39 3 7 9 10 12 16 23 27 34 40 42 45 48 50 51 54 56 69 79 80 81 90 113 115 116 117 119 120 121 137 139 141
b 40 7 9 10 12 23 34 40 42 48 50 51 54 56 67 69 73 80 97 113 115 116 117 119 121 137 139 141
b 41 7 9 10 35 40 51 54 56 63 67 73 80 93 97 113 115 116 117 119 125 137 139 141
b 42 9 20 35 40 47 54 63 67 73 80 93 97 115 117 119 125 137
b 43 20 35 40 47 54 63 67 73 80 89 93 97 115 117 119 124 125 137
b 44 35 40 47 54 59 67 80 89 93 97 137
b 45 20 63 72 73 115 117 119 124 125
b 46 20 47 63 73 75 115 117 119 125
b 47 20 35 40 47 54 63 67 73 80 93 97 104 115 117 119 125 137
b 48 1 2 3 11 12 13 14 23 24 27 29 31 32 41 45 48 51 53 56 58 61 64 65 68 76 84 87 88 90 92 102 105 113 116 118 121 127 132 133 136 138
b 49 2 3 13 14 23 24 29 31 41 45 53 56 57 58 61 64 65 68 76 84 87 92 102 113 118 121 127 133 136 138
b 50 1 2 3 11 12 13 14 23 24 27 29 31 32 41 45 48 51 53 56 58 61 64 68 83 84 87 88 90 92 102 105 113 116 118 121 127 132 136 138
b 51 3 29 31 58 61 65 87 102 113 114 118 121 136
b 52 2 13 14 23 24 45 53 56 64 68 84 127 133 138 142
1 21
2 16
3 21
4 21
5 36
6 9
7 36
8 9
9 12
10 12
11 12
12 18
13 17
14 21
15 21
16 18
17 18
18 36
19 20
19 37
20 21
21 22
21 36
22 23
23 24
23 35
24 25
24 34
25 26
26 27
27 28
27 29
29 30
29 31
29 32
29 33
37 38
38 39
38 48
39 40
40 41
41 42
42 43
42 46
42 47
43 44
43 45
48 49
48 50
48 51
48 52
